Set parameter TokenServer to value "hpc-licenses.hpcc.usc.edu"
Set parameter TimeLimit to value 3600
Gurobi Optimizer version 9.5.1 build v9.5.1rc2 (linux64)
Thread count: 20 physical cores, 20 logical processors, using up to 20 threads
Optimize a model with 6007 rows, 4529 columns and 24534 nonzeros
Model fingerprint: 0x6919c5c7
Variable types: 4506 continuous, 23 integer (23 binary)
Coefficient statistics:
  Matrix range     [1e+00, 1e+00]
  Objective range  [1e-03, 3e+00]
  Bounds range     [1e+00, 1e+00]
  RHS range        [1e+00, 1e+02]
Presolve removed 1514 rows and 1511 columns
Presolve time: 0.07s
Presolved: 4493 rows, 3018 columns, 21993 nonzeros
Variable types: 2998 continuous, 20 integer (20 binary)
Found heuristic solution: objective 294.9574222
Found heuristic solution: objective 296.1355527

Root relaxation: objective 3.027395e+02, 2382 iterations, 0.08 seconds (0.09 work units)

    Nodes    |    Current Node    |     Objective Bounds      |     Work
 Expl Unexpl |  Obj  Depth IntInf | Incumbent    BestBd   Gap | It/Node Time

     0     0  302.73946    0    2  296.13555  302.73946  2.23%     -    0s
     0     0  302.59500    0    2  296.13555  302.59500  2.18%     -    0s
     0     0  301.23472    0    2  296.13555  301.23472  1.72%     -    0s
     0     0  301.23472    0    2  296.13555  301.23472  1.72%     -    0s
     0     0  300.30236    0    2  296.13555  300.30236  1.41%     -    0s
     0     0  299.85407    0    2  296.13555  299.85407  1.26%     -    0s
     0     0  299.85407    0    2  296.13555  299.85407  1.26%     -    0s
     0     2  299.85407    0    2  296.13555  299.85407  1.26%     -    0s
*   24     2              12     297.5112345  297.51123  0.00%   169    1s

Cutting planes:
  Gomory: 2
  MIR: 76
  Flow cover: 3
  RLT: 9
  Relax-and-lift: 1

Explored 25 nodes (6849 simplex iterations) in 1.33 seconds (0.91 work units)
Thread count was 20 (of 20 available processors)

Solution count 3: 297.511 296.136 294.957 

Optimal solution found (tolerance 1.00e-04)
Best objective 2.975112344597e+02, best bound 2.975112344597e+02, gap 0.0000%



#########node  1
V1.8
#########node  2
0.02912621359223301,0.970873786407767
#########node  3
1.0,0.0


Total Solving Time 1.7319939136505127
obj value 297.5112344596607
Policy Regret train (Sum) 0.5246451196991215
Best Treatment Found train (%) 90.2
treatment classification acc train (%) 29.799999999999997
Policy Regret test (Sum) 110.93848330628616
Best Treatment Found test (%) 62.73
treatment classification acc test (%) 33.45
Set parameter TokenServer to value "hpc-licenses.hpcc.usc.edu"
Set parameter TimeLimit to value 3600
Gurobi Optimizer version 9.5.1 build v9.5.1rc2 (linux64)
Thread count: 20 physical cores, 20 logical processors, using up to 20 threads
Optimize a model with 6007 rows, 4529 columns and 24534 nonzeros
Model fingerprint: 0x6919c5c7
Variable types: 4506 continuous, 23 integer (23 binary)
Coefficient statistics:
  Matrix range     [1e+00, 1e+00]
  Objective range  [1e-03, 3e+00]
  Bounds range     [1e+00, 1e+00]
  RHS range        [1e+00, 1e+02]
Presolve removed 1514 rows and 1511 columns
Presolve time: 0.07s
Presolved: 4493 rows, 3018 columns, 21993 nonzeros
Variable types: 2998 continuous, 20 integer (20 binary)
Found heuristic solution: objective 294.9574222
Found heuristic solution: objective 296.1355527

Root relaxation: objective 3.027395e+02, 2382 iterations, 0.08 seconds (0.09 work units)

    Nodes    |    Current Node    |     Objective Bounds      |     Work
 Expl Unexpl |  Obj  Depth IntInf | Incumbent    BestBd   Gap | It/Node Time

     0     0  302.73946    0    2  296.13555  302.73946  2.23%     -    0s
     0     0  302.59500    0    2  296.13555  302.59500  2.18%     -    0s
     0     0  301.23472    0    2  296.13555  301.23472  1.72%     -    0s
     0     0  301.23472    0    2  296.13555  301.23472  1.72%     -    0s
     0     0  300.30236    0    2  296.13555  300.30236  1.41%     -    0s
     0     0  299.85407    0    2  296.13555  299.85407  1.26%     -    0s
     0     0  299.85407    0    2  296.13555  299.85407  1.26%     -    0s
     0     2  299.85407    0    2  296.13555  299.85407  1.26%     -    0s
*   24     2              12     297.5112345  297.51123  0.00%   169    1s

Cutting planes:
  Gomory: 2
  MIR: 76
  Flow cover: 3
  RLT: 9
  Relax-and-lift: 1

Explored 25 nodes (6849 simplex iterations) in 1.41 seconds (0.91 work units)
Thread count was 20 (of 20 available processors)

Solution count 3: 297.511 296.136 294.957 

Optimal solution found (tolerance 1.00e-04)
Best objective 2.975112344597e+02, best bound 2.975112344597e+02, gap 0.0000%



#########node  1
V1.8
#########node  2
0.02912621359223301,0.970873786407767
#########node  3
1.0,0.0


Total Solving Time 1.7786619663238525
obj value 297.5112344596607
Policy Regret train (Sum) 0.5246451196991215
Best Treatment Found train (%) 90.2
treatment classification acc train (%) 29.799999999999997
Policy Regret test (Sum) 110.93848330628616
Best Treatment Found test (%) 62.73
treatment classification acc test (%) 33.45
